1000 1719
1 2 3 4 5 6 7 8 9 10 11 12 13 14
0 15 16 17 18 19 20 21 22 23 24 25 26 27 28 29 30 31 32 33 34 35 36 37 38 39 40 41 42 43 44 45 46 47 48 49 50 51 52 53 54 55 56 57 58 59 60 61 62 63 64 65 66 67 68 69 70 71 72 73 74 75 76 77 78 79 80 81 82 83 84 85 86 87 88 89 90 91 92 93 94 95 96 97 98 99 100 101 102 103 104 105 106 107 108 109 110 111 112 113 114 115 116 117 118 119 120 121 122 123 124 125 126 127 128 129 130 131 132 133 134 135 136 137 138 139 140 141 142 143 144 145 146 147 148 149 150 151 152 153 154 155 156 157 158 159 160 161 162 163 164 165 166 167 168 169 170 171 172 173 174 175 176 177 178 179 180 181 182 183 184 185 186 187 188 189 190 191 192 193 194 195 196 197 198 199 200 201 202 203 204 205 206 207 208 209 210 211 212 213 214 215 216 217 218 219 220 221 222 223 224 225 226 227 228 229 230 231 232 233 234 235 236 237 238 239 240 241 242 243 244 245 246 247 248 249 250 251 252 253 254 255 256 257 258 259 260 261 262 263 264 265 266 267 268 269 270 271 272 273 274 275 276 277 278 279 280 281 282 283 284 285 286 287 288 289 290 291 292 293 294 295 296 297 298 299 300 301 302 303 304 305 306 307 308 309 310 311 312 313 314 315 316 317 318 319 320 321 322 323 324 325 326 327 328 329 330 331 332
0 333 334 335 336 337 338 339 340 341 342 343 344 345 346 347 348 349 350 351 352 353 354 355 356 357 358 359 360 361 362 363 364
0 355 365 366 367 368 369 370 371 372 373 374 375 376
0 6 338 356 377 378 379 380
0 309 381 382 383 384 385 386 387 388 389 390 391 392 393 394 395 396 397 398 399 400 401 402 403 404 405 406 407 408 409 410 411 412 413 414 415 416 417 418 419 420 421 422 423 424 425 426 427 428 429 430 431 432 433 434 435 436 437 438 439 440 441 442 443 444 445 446 447 448 449 450 451 452 453 454 455 456 457 458 459 460 461 462 463 464 465 466 467 468 469 470 471 472 473 474 475 476 477 478 479 480 481 482 483 484 485 486 487 488 489 490 491 492 493 494 495 496 497 498 499 500 501 502 503 504 505 506 507 508 509 510 511 512 513 514 515 516 517 518 519 520 521 522 523 524 525 526 527 528 529 530 531 532 533 534 535 536 537 538 539 540 541 542 543 544 545 546 547 548 549 550 551 552 553 554 555 556 557 558 559 560 561 562 563 564 565 566 567 568 569 570 571 572 573 574 575 576 577 578 579 580 581 582 583 584 585 586 587 588 589 590 591 592 593 594 595 596 597 598 599 600 601 602 603 604 605 606 607 608 609 610 611 612 613 614 615 616 617 618 619 620 621 622 623 624 625 626 627 628 629 630 631 632 633 634 635 636 637 638 639 640 641 642 643 644 645 646 647 648 649 650 651 652 653 654 655 656 657 658 659 660 661 662 663 664 665 666 667 668 669 670 671 672 673 674 675 676 677 678 679 680 681 682 683 684 685 686 687 688 689 690 691 692 693 694 695 696 697 698 699 700 701 702 703 704 705 706 707 708 709 710 711 712 713 714 715 716 717 718 719 720 721 722 723 724 725 726 727 728 729 730 731 732 733 734 735 736 737 738 739 740 741 742 743 744 745 746 747 748 749 750 751 752 753 754 755 756 757 758 759 760 761 762 763 764 765 766 767 768 769 770 771 772 773 774 775 776 777 778 779 780 781 782 783 784 785 786 787 788 789 790 791 792 793 794 795 796 797 798 799 800 801 802 803 804 805 806 807 808 809 810 811 812 813 814 815 816 817 818 819 820 821 822 823 824 825 826 827 828 829 830 831 832 833 834 835 836 837 838 839 840 841 842 843 844 845 846 847 848 849 850 851 852 853 854 855 856 857 858 859 860 861 862 863 864 865 866 867 868 869 870 871 872 873 874 875 876 877 878 879 880 881 882 883 884 885 886 887 888 889 890 891 892 893 894 895 896 897 898 899 900 901 902 903 904 905 906 907 908 909 910 911 912 913 914 915 916 917 918 919 920 921 922 923 924 925 926 927 928 929 930 931 932 933 934 935 936 937 938 939 940 941 942 943 944 945 946 947 948 949 950 951 952 953 954 955 956 957 958 959 960 961 962 963 964 965 966 967
0 4 338 378 380 968 969 970 971 972 973 974 975
0 976 977 978 979 980 981 982 983 984 985 986 987 988 989 990 991 992 993 994 995 996 997 998 999
0 58 61 100 135 182 232 326 363 374 379 969
0 35 87 241
0
0
0
0
0 379 889
1 112
1
1 466
1
1 847
1
1
1
1 873
1
1 74 208
1
1 287
1 54 668
1 213
1
1
1 107 114
1
1
1 9 357
1 283
1
1
1
1
1 982 985
1
1
1
1
1
1
1
1 516 901
1 752
1
1
1
1 28 77
1
1 134
1
1 8
1
1 114 265
1 8
1 143
1
1
1 316
1
1 331
1 119 366
1
1
1
1
1
1 25 208
1 102 151 163
1
1 54 118 225
1
1
1 236 276 295
1 222
1 84
1
1 82
1 195
1
1 9
1 213
1
1
1
1
1
1
1 140
1 233
1
1 154 179 196
1 184 223 323 810
1 8
1
1 75
1
1
1
1
1 32 193
1
1 310
1 143
1
1 15 157
1 117
1 32 60 265
1
1
1 113 134 958
1 77 248
1 68
1 903
1 332
1
1
1
1
1
1
1
1
1 475 719
1 282 329
1 510
1
1 56 117 206
1 8
1 673
1
1
1
1 95
1 329
1
1 62 110
1
1 240
1
1
1 163 249
1
1 325
1 75
1
1 329
1 98 196 314
1
1
1 112
1 198
1 161 296
1
1 159 296
1
1 75 148 249
1
1
1
1 199
1
1
1
1
1 289
1 198 226
1
1 784
1
1 641 642 743
1 291 325
1 98 236
1 377
1
1 8
1
1 99
1 263
1 668
1
1
1 193 208 332
1
1
1
1 107 189 283 332
1
1 85 325
1 98 154 280
1
1 158 173 250 316
1 167
1 326
1
1
1
1
1
1 134
1
1 25 74 189 508
1 252
1
1
1
1 29 88
1
1
1
1
1
1 264
1
1 318
1 81
1 99
1 999
1 77 238
1 173
1
1
1
1
1
1 8
1 96
1
1
1 80 179
1
1 225
1
1 145
1 9
1
1
1 317
1
1
1
1 118 329
1 148 163
1 198
1
1 209
1
1
1
1
1
1
1
1
1
1 535
1 185
1 219
1 60 114
1
1
1
1
1
1
1
1
1
1
1 80
1 466
1
1
1 196
1
1 131
1 36 193 296
1
1
1
1 27
1
1 172
1
1 178
1
1
1
1 80
1 159 161 283
1
1
1
1
1
1
1
1
1
1 357
1
1
1 5
1 109
1
1
1
1 154
1
1 65 198
1 244
1 221
1
1
1
1
1 99 810
1
1 150 178 195
1 8 200
1
1
1 131 141 153 248 896
1
1 67
1 121 189 193
2
2
2
2
2 338 343 349 354 359 363 369 371 376
2 4 6 337 378
2 356
2 348 353
2
2 959
2 337
2
2
2
2 348
2 340 347
2 337 359 377
2
2 352
2 351
2 340
2 337 357
2 3
2 4 339 357 378
2 35 306 354 356 358 360 970 972
2 357
2 337 349 368 970
2 357
2
2
2 8 337
2
3 366 371 373
3 68 365 368 372
3
3 359 366 372 376
3 337
3
3 337 365
3 366 368 376
3 365
3 8
3
3 337 368 372 377
4 180 349 376 518 711 969
4 6 338 356 380 969 975
4 8 14
4 6 378
5
5 413
5 508 528 535 629 647 691 725 797 868 874 900 917 942
5
5
5
5
5
5 808
5 478
5
5
5
5 430 475 629 671 712
5 403 832 960
5
5
5
5 449 629 725 955
5 608 628 832
5
5
5 395 828 863
5
5
5 781 971
5 535
5 724 957
5 551 712
5 952
5
5
5 382 515 573 574 624 815 893 894
5 865
5
5 746
5
5
5 708
5 582
5
5
5 440 481 768 865 868
5
5 602 734 866 938
5
5 874 923
5 616
5
5 394 712
5 470 941
5 497
5 596
5
5 875
5
5 917
5
5
5 423 629 647 757 768 868
5 641 642 743 813 926
5
5
5
5
5
5 892
5
5 399 481 520 565 629 691 737 768 868 874 918 955
5
5
5
5 938
5
5
5 481 554
5
5
5
5
5 595 728
5
5
5
5 647
5 17 277
5
5
5
5 431
5
5 825
5
5
5 130 394 481 503 508 520 528 535 649 662 742 758 797 868 880 886 900 917 918 920 942 955
5
5 629
5 390 521 575 655 887
5
5
5 423 449 456 475 520 535 629 677 797 816 865 868 918 925 955 963
5
5
5
5
5 494 767 843
5 507
5
5 826 868 917
5
5
5 564
5 527
5 486 547 767 829 843
5 539
5
5 432
5 817 828 863 908
5 778
5
5 891
5
5 475 581 649
5
5
5
5 487 682
5 208 383 475 528 535 605 660 691 742 924
5
5 132
5
5 520 725 774 924 955 965
5
5 702 729
5 413 573 574 624 672 815 888 893 894
5 49
5
5 377
5
5 449 475 481 512 524 528 530 538 605 626 677 682 737 742 745 757 768 774 846 886 917 918 955 965
5 478
5 719 882
5
5 520 865
5 935
5
5 493 625 642
5 383 475 508 520 535 536 565 605 629 647 691 768 868 890 917 918 942
5
5 520 536 629
5
5
5
5
5 262 383 407 475 481 508 528 565 581 587 629 647 649 660 662 691 742 766 791 868 874 942
5 528 530 605 647
5
5 520 582
5 495
5 666 719
5 797
5 803
5
5
5
5
5 494 615 767
5
5 789 955
5
5 409 917 945
5 609
5
5 456 770 963
5
5
5 918
5
5
5
5
5
5
5 492
5 449 528 535 581 605 647 674 691 725 737 742 768 774 868 917 955
5
5
5
5 764
5
5 617 873 891
5 614
5 413 515 624 893 894
5 413 515 624 815 888 893
5 478
5
5
5
5 741
5
5 503 535 565 629 649
5 420 538 945
5
5
5 686
5
5 535
5
5
5
5
5
5 890
5 653
5 461 799
5 433
5
5
5
5
5
5 425 734 785 814 866 932
5
5
5 508 520 528 536 565 647 917 918
5
5
5 400 628 678 817 832
5 552 917 918
5
5
5 918
5
5 572
5 547
5 428 693
5 571
5
5
5
5
5 701
5 774 867
5 413 515 573 574 893
5 527
5 520 805
5
5 400 608 817 832
5 383 394 399 440 449 477 481 528 530 535 581 641 642 649 691 725 737 742 768 774 843 859 868 874 890 917 918 955
5
5
5
5
5
5
5 724 794 957
5 917
5
5
5 875 940
5 177 441 629 642 743 813 926
5 177 441 527 629 641 743 926
5
5
5
5
5 383 440 465 528 535 536 565 605 768 868 917 918
5
5 475 503 535 581 629 795 819 884
5 669
5
5
5 594
5 797
5 478
5
5
5
5 740
5 508 535 682
5 758
5 475 535 917 918
5
5
5
5 540 846 882
5
5 28 186
5 650 713 797
5
5 394 903 917 942
5 515
5 136
5 565 918 958
5 714
5 700 871
5 481 520 680 725 768 774 797 913 917 963
5 608
5
5 677 768
5 768 964
5 507 520 660 728 868 949
5 755
5 917
5
5 585
5
5
5
5
5 383 449 508 528 535 565 629 725 737 768 774 874 917 955 959
5 921
5 616
5
5
5
5
5
5 797
5 676 797 957
5 622
5 514 729 917
5
5 909 922
5
5 955
5
5 419
5
5
5 377
5 394 409 430
5 669
5 675
5
5
5
5
5 130 522 540
5
5
5
5
5 408 636 797 871 957
5 383 399 512 565 629 677 691 737 768 868 874 886 924 942 955
5
5
5 461 682
5 514 702 917
5
5 807
5
5
5 425 602 814
5 889
5 771
5 449 520 565 629 691 725 768 774 868 917 955
5
5
5 659
5 579
5 475 508 520 535 565 629 768 868 874 918 955
5 177 441 641 642 813
5
5 520 985
5 416 755 827
5
5
5
5
5
5 50
5
5
5 683 746 827
5
5 440 520
5 475 661 917 918
5
5
5
5
5
5 569
5
5 535
5 486 494 547 829 843
5 423 440 449 520 528 565 629 647 677 680 681 691 725 737 742 797 865 868 874 913 917 918 924 925 955
5
5 554 963
5 736
5
5
5 512 520 565 623 629 677 691 737 820 874 955
5
5
5
5 499
5
5
5 406
5 949
5
5 175
5 602
5
5
5
5 549
5
5 535
5 840 883
5
5 636 845 857 957
5 649
5 875
5 383 475 481 541 654 669 677 699 700 724 768 820 828 848 868 874 925 942 955
5
5 595 890 926
5
5
5
5 542
5
5 626
5
5 731 924
5 389
5 917 955
5 99 323
5
5
5 441 641 743 926
5 602 734
5 413 515 574 893 894
5 481
5 498 608 628 832
5
5 649
5 774 797 826 955
5 902
5
5
5
5 472
5 489 820
5 746 755
5 403 498 797 863
5 494 767
5
5
5 395 400 608 628 817
5
5
5
5 957
5
5
5
5 792 883 900
5
5
5 486 494 629 767
5
5 794
5 520 666
5 19
5 797
5
5
5 913 917
5
5
5
5
5
5 794 916
5
5 629
5 915
5
5
5 403 498 828
5
5 414 423 481 524 768 874 955
5 425 602
5 623
5 383 423 440 449 475 481 489 528 535 565 629 647 682 725 737 742 768 797 917 924 942 955
5
5
5 676 724 957
5
5 23 571
5 383 427 449 535 629 691 725 742 768 774 797 865 905 917 918 955
5 435 640 796
5
5 954
5
5
5 475 957
5
5 522 666
5 792 840
5 649
5
5 475 520 725 918
5 478
5 515 574
5 14 735
5 528 593 629 799
5 501 571
5 447
5 413 515 573 574 624 815 894
5 413 515 573 815 893
5
5 329
5
5
5
5 383 475 840 942
5 49
5 821
5 120 671 906
5
5 874
5 903 927
5
5 498
5 704
5
5
5
5 677 768 851 917 918
5
5 860
5 857
5 383 437 475 489 520 528 551 565 605 609 629 637 647 662 671 677 684 691 702 729 737 758 768 809 851 868 874 913 918 942 955 957 962
5 449 475 481 520 528 557 605 609 612 629 647 662 674 742 758 768 874 886 913 917 955
5
5 475
5 692
5 704
5 427
5 508 512 725 768 807 868
5 481 768 797
5 441 641 642 799 813
5 906
5
5
5
5
5 602
5
5
5 525
5
5
5 425 453
5
5 640
5 431
5 383 475 528 535 671 725 797 868 900 917
5
5
5 551 582
5
5
5
5 682 782
5
5
5 410
5
5 877
5 399 449 475 481 512 520 549 565 629 691 706 725 737 742 768 774 797 809 820 865 868 874 917 918 958
5
5 408 636 700 724 794 836 871 880 917
5 117 674 955
5 342 691
5 395
5
5 917
5 481 554 677 770
5 681
5 512 520
5
5
6
6 8 377 378
6 357 359 973
6 406
6 357
6 970
6
6 378
7
7 990 995 997 999
7
7 988
7 982 985 992 998
7
7 41 980 992
7 992
7 992
7 41 745 980 992
7
7
7 979
7
7 977 995 997 999
7 992 993
7 980 982 983 984 985 991 993 998
7 991 992
7
7 977 990 997 999
7
7 977 990 995 999
7 980 992
7 224 977 990 995 997
